analyze/results_flowersnark/final_miplib_symretope_if_extended_generating_set_cpx_v802__settings_final_nosym_norestarts__1__square23.mps.gz.sol
solution status: optimal solution found
objective value:                                   13
x_1_1_11                                            1 	(obj:1)
x_1_12_12                                           1 	(obj:1)
x_12_1_4                                            1 	(obj:1)
x_12_5_5                                            1 	(obj:1)
x_12_10_2                                           1 	(obj:1)
x_13_12_1                                           1 	(obj:1)
x_13_13_11                                          1 	(obj:1)
x_14_10_3                                           1 	(obj:1)
x_16_1_3                                            1 	(obj:1)
x_16_4_1                                            1 	(obj:1)
x_17_4_2                                            1 	(obj:1)
x_17_6_7                                            1 	(obj:1)
x_19_1_5                                            1 	(obj:1)
y_12                                                1 	(obj:0)
y_11                                                2 	(obj:0)
y_7                                                 1 	(obj:0)
y_5                                                 2 	(obj:0)
y_4                                                 1 	(obj:0)
y_3                                                 2 	(obj:0)
y_2                                                 2 	(obj:0)
y_1                                                 2 	(obj:0)
