analyze/results_flowersnark/final_miplib_symretope_if_extended_generating_set_cpx_v802__settings_final_nosym_norestarts__1__square23.mps.gz.out
FILENAME:   /home/mcs001/s132664/testsets/IP/miplib2017/square23.mps.gz
SETTINGS:   settings_final_nosym_norestarts
TIMELIMIT:  7200
OUTPUTNAME: final_miplib_symretope_if_extended_generating_set_cpx_v802__settings_final_nosym_norestarts__1__
BINNAME:    bin/sbcs.linux.x86_64.gnu.opt.cpx
BASENAME:   square23.mps.gz
SEED:       1
@01 /home/mcs001/s132664/testsets/IP/miplib2017/square23.mps.gz ===========
@02 square23.mps.gz
@03 1686651428
SCIP version 8.0.2 [precision: 8 byte] [memory: block] [mode: optimized] [LP solver: CPLEX 20.1.0.0] [GitHash: 5f0473c]
Copyright (C) 2002-2022 Konrad-Zuse-Zentrum fuer Informationstechnik Berlin (ZIB)

Symretope propagation methods - (c) Jasper van Doornmalen, Christopher Hojny.
[GitHash: 2fd0484]

reading parameter file <../settings/settings_final_nosym_norestarts.set> ...

Changed settings:
limits/time = 7200
limits/restarts = 0
misc/usesymmetry = 0
randomization/randomseedshift = 1
constraints/orbisack/sepafreq = -1
constraints/symresack/sepafreq = -1
propagating/symmetry/detectsubgroups = FALSE
propagating/symmetry/usesymretopes = FALSE
propagating/symmetry/relabelsymretopes = 0
propagating/symmetry/ofsymcomptiming = 0
constraints/symretope/sepafreq = -1
constraints/symretope/peek = FALSE


solving problem ...

original problem has 11660 variables (11638 bin, 22 int, 0 impl, 0 cont) and 7887 constraints
presolving:
(round 1, fast)       7315 del vars, 7315 del conss, 0 add conss, 7337 chg bounds, 0 chg sides, 0 chg coeffs, 0 upgd conss, 0 impls, 529 clqs
(round 2, exhaustive) 7315 del vars, 7328 del conss, 0 add conss, 7337 chg bounds, 13 chg sides, 0 chg coeffs, 0 upgd conss, 0 impls, 529 clqs
(round 3, exhaustive) 7315 del vars, 7328 del conss, 0 add conss, 7337 chg bounds, 13 chg sides, 0 chg coeffs, 529 upgd conss, 0 impls, 529 clqs
   (5.1s) probing: 1000/4323 (23.1%) - 0 fixings, 0 aggregations, 17828 implications, 0 bound changes
   (5.1s) probing: 1001/4323 (23.2%) - 0 fixings, 0 aggregations, 17847 implications, 0 bound changes
   (5.1s) probing aborted: 1000/1000 successive useless probings
presolving (4 rounds: 4 fast, 3 medium, 3 exhaustive):
 7315 deleted vars, 7328 deleted constraints, 0 added constraints, 7337 tightened bounds, 0 added holes, 13 changed sides, 0 changed coefficients
 17571 implications, 805 cliques
presolved problem has 4345 variables (4323 bin, 22 int, 0 impl, 0 cont) and 559 constraints
    529 constraints of type <setppc>
     30 constraints of type <linear>
transformed objective value is always integral (scale: 1)
Presolving Time: 5.11

 time | node  | left  |LP iter|LP it/n|mem/heur|mdpt |vars |cons |rows |cuts |sepa|confs|strbr|  dualbound   | primalbound  |  gap   | compl. 
p 5.4s|     1 |     0 |     0 |     - |  clique|   0 |4345 | 559 | 559 |   0 |  0 |   0 |   0 | 4.000000e+00 | 2.600000e+01 | 550.00%| unknown
  7.1s|     1 |     0 |   543 |     - |   436M |   0 |4345 | 597 | 559 |   0 |  0 |  52 |   0 | 8.333333e+00 | 2.600000e+01 | 212.00%| unknown
 17.8s|     1 |     2 | 10853 |     - |   440M |   0 |4345 | 656 | 559 |   0 |  2 | 111 |  19 | 8.676364e+00 | 2.600000e+01 | 199.66%| unknown
*23.7s|     4 |     3 | 11849 |3768.7 |strongbr|   3 |4345 | 592 | 559 |   0 |  1 | 111 |  64 | 8.676364e+00 | 1.400000e+01 |  61.36%| unknown
 50.7s|   100 |    15 | 34440 | 342.4 |   446M |  14 |4345 | 827 | 559 |   1 |  2 | 366 | 307 | 9.160853e+00 | 1.400000e+01 |  52.82%|  26.70%
*51.0s|   110 |    11 | 35911 | 324.5 |    LP  |  14 |4345 | 612 | 559 |   1 |  1 | 366 | 307 | 9.190570e+00 | 1.300000e+01 |  41.45%|  30.11%
 54.9s|   200 |    13 | 50746 | 252.3 |   449M |  18 |4345 | 630 | 559 |   1 |  2 | 400 | 322 | 1.018828e+01 | 1.300000e+01 |  27.60%|  50.59%

SCIP Status        : problem is solved [optimal solution found]
Solving Time (sec) : 59.67
Solving Nodes      : 289
Primal Bound       : +1.30000000000000e+01 (3 solutions)
Dual Bound         : +1.30000000000000e+01
Gap                : 0.00 %
SCIP Status        : problem is solved [optimal solution found]
Total Time         :      60.20
  solving          :      59.67
  presolving       :       5.11 (included in solving)
  reading          :       0.53
  copying          :       0.14 (6 #copies) (minimal 0.02, maximal 0.02, average 0.02)
Original Problem   :
  Problem name     : square23
  Variables        : 11660 (11638 binary, 22 integer, 0 implicit integer, 0 continuous)
  Constraints      : 7887 initial, 7887 maximal
  Objective        : minimize, 11638 non-zeros (abs.min = 1, abs.max = 1)
Presolved Problem  :
  Problem name     : t_square23
  Variables        : 4345 (4323 binary, 22 integer, 0 implicit integer, 0 continuous)
  Constraints      : 559 initial, 827 maximal
  Objective        : minimize, 4235 non-zeros (abs.min = 1, abs.max = 1)
  Nonzeros         : 269382 constraint, 161841 clique table
Presolvers         :   ExecTime  SetupTime  Calls  FixedVars   AggrVars   ChgTypes  ChgBounds   AddHoles    DelCons    AddCons   ChgSides   ChgCoefs
  boundshift       :       0.00       0.00      0          0          0          0          0          0          0          0          0          0
  convertinttobin  :       0.00       0.00      0          0          0          0          0          0          0          0          0          0
  domcol           :       0.04       0.00      1          0          0          0          0          0          0          0          0          0
  dualagg          :       0.00       0.00      0          0          0          0          0          0          0          0          0          0
  dualcomp         :       0.00       0.00      0          0          0          0          0          0          0          0          0          0
  dualinfer        :       0.00       0.00      0          0          0          0          0          0          0          0          0          0
  dualsparsify     :       0.24       0.00      1          0          0          0          0          0          0          0          0          0
  gateextraction   :       0.00       0.00      0          0          0          0          0          0          0          0          0          0
  implics          :       0.00       0.00      3          0          0          0          0          0          0          0          0          0
  inttobinary      :       0.00       0.00      4          0          0          0          0          0          0          0          0          0
  qpkktref         :       0.00       0.00      0          0          0          0          0          0          0          0          0          0
  redvub           :       0.00       0.00      0          0          0          0          0          0          0          0          0          0
  sparsify         :       0.30       0.00      1          0          0          0          0          0          0          0          0          0
  stuffing         :       0.00       0.00      0          0          0          0          0          0          0          0          0          0
  trivial          :       0.00       0.00      4          0          0          0          0          0          0          0          0          0
  tworowbnd        :       0.00       0.00      0          0          0          0          0          0          0          0          0          0
  dualfix          :       0.00       0.00      4          0          0          0          0          0          0          0          0          0
  genvbounds       :       0.00       0.00      0          0          0          0          0          0          0          0          0          0
  probing          :       3.30       0.00      1          0          0          0          0          0          0          0          0          0
  pseudoobj        :       0.00       0.00      0          0          0          0          0          0          0          0          0          0
  symmetry         :       0.00       0.00      0          0          0          0          0          0          0          0          0          0
  vbounds          :       0.01       0.00      1          0          0          0          0          0          0          0          0          0
  knapsack         :       0.00       0.00      0          0          0          0          0          0          0          0          0          0
  setppc           :       0.09       0.00      3          0          0          0          0          0          0          0          0          0
  linear           :       1.02       0.16      7       7315          0          0       7337          0       7328          0         13          0
  logicor          :       0.00       0.00      0          0          0          0          0          0          0          0          0          0
  bounddisjunction :       0.00       0.00      0          0          0          0          0          0          0          0          0          0
  benders          :       0.00       0.00      0          0          0          0          0          0          0          0          0          0
  components       :       0.04       0.00      1          0          0          0          0          0          0          0          0          0
  root node        :          -          -      -        672          -          -        682          -          -          -          -          -
Constraints        :     Number  MaxNumber  #Separate #Propagate    #EnfoLP    #EnfoRelax  #EnfoPS    #Check   #ResProp    Cutoffs    DomReds       Cuts    Applied      Conss   Children
  benderslp        :          0          0          0          0        191          0          0         14          0          0          0          0          0          0          0
  integral         :          0          0          0          0        191          0          0         14          0          0        176          0          0        319        290
  knapsack         :          0+         4          0       1542          0          0          0          0         70          0         23          0          0          0          0
  setppc           :        529+       552          1       6808          1          0          0          8      37814         41      42853          0          0          0          0
  linear           :         30         30          1       6766          1          0          0          2       8317          1       4170          0          0          0          0
  logicor          :          0+        56          1        627          0          0          0          0         22          1          5          0          0          0          0
  bounddisjunction :          0+       221          0        731          0          0          0          0         97          1          6          0          0          0          0
  benders          :          0          0          0          0          1          0          0          3          0          0          0          0          0          0          0
  countsols        :          0          0          0          0          1          0          0          3          0          0          0          0          0          0          0
  components       :          0          0          0          0          0          0          0          0          0          0          0          0          0          0          0
Constraint Timings :  TotalTime  SetupTime   Separate  Propagate     EnfoLP     EnfoPS     EnfoRelax   Check    ResProp    SB-Prop
  benderslp        :       0.00       0.00       0.00       0.00       0.00       0.00       0.00       0.00       0.00       0.00
  integral         :      32.97       0.00       0.00       0.00      32.97       0.00       0.00       0.00       0.00       0.00
  knapsack         :       0.01       0.00       0.00       0.00       0.00       0.00       0.00       0.00       0.00       0.00
  setppc           :       0.93       0.00       0.02       0.26       0.00       0.00       0.00       0.00       0.03       0.61
  linear           :       0.61       0.16       0.00       0.36       0.00       0.00       0.00       0.00       0.04       0.06
  logicor          :       0.01       0.00       0.00       0.00       0.00       0.00       0.00       0.00       0.00       0.00
  bounddisjunction :       0.02       0.00       0.00       0.01       0.00       0.00       0.00       0.00       0.00       0.01
  benders          :       0.00       0.00       0.00       0.00       0.00       0.00       0.00       0.00       0.00       0.00
  countsols        :       0.00       0.00       0.00       0.00       0.00       0.00       0.00       0.00       0.00       0.00
  components       :       0.00       0.00       0.00       0.00       0.00       0.00       0.00       0.00       0.00       0.00
Propagators        : #Propagate   #ResProp    Cutoffs    DomReds
  dualfix          :          3          0          0          0
  genvbounds       :          0          0          0          0
  nlobbt           :          0          0          0          0
  obbt             :          0          0          0          0
  probing          :          0          0          0          0
  pseudoobj        :       1216          3          0        349
  redcost          :        726          0          0      50085
  rootredcost      :          3          0          0        592
  symmetry         :          0          0          0          0
  vbounds          :       1932          0          0          0
Propagator Timings :  TotalTime  SetupTime   Presolve  Propagate    ResProp    SB-Prop
  dualfix          :       0.00       0.00       0.00       0.00       0.00       0.00
  genvbounds       :       0.00       0.00       0.00       0.00       0.00       0.00
  nlobbt           :       0.00       0.00       0.00       0.00       0.00       0.00
  obbt             :       0.00       0.00       0.00       0.00       0.00       0.00
  probing          :       3.30       0.00       3.30       0.00       0.00       0.00
  pseudoobj        :       0.02       0.00       0.00       0.01       0.00       0.00
  redcost          :       0.21       0.00       0.00       0.21       0.00       0.00
  rootredcost      :       0.02       0.00       0.00       0.02       0.00       0.00
  symmetry         :       0.00       0.00       0.00       0.00       0.00       0.00
  vbounds          :       0.02       0.00       0.01       0.01       0.00       0.00
Conflict Analysis  :       Time      Calls    Success    DomReds  Conflicts   Literals    Reconvs ReconvLits   Dualrays   Nonzeros   LP Iters   (pool size: [10000,10000])
  propagation      :       0.03         43         37          -        138      349.3          0        0.0          -          -          -
  infeasible LP    :       0.27         33          8          -         34      580.7          0        0.0          4      128.8          0
  bound exceed. LP :       5.22        162        160          -        681      195.3         20       98.5          9        1.0       1940
  strong branching :       0.00          0          0          -          0        0.0          0        0.0          -          -          0
  pseudo solution  :       0.00          0          0          -          0        0.0          0        0.0          -          -          -
  applied globally :       3.56          -          -          9        453      162.8          -          -         13          -          -
  applied locally  :          -          -          -          0          4      832.2          -          -          0          -          -
Separators         :   ExecTime  SetupTime      Calls  RootCalls    Cutoffs    DomReds  FoundCuts ViaPoolAdd  DirectAdd    Applied ViaPoolApp  DirectApp      Conss
  cut pool         :       0.00          -         28          0          -          -          1          1          -          -          -          -          -    (maximal pool size:          1)
  aggregation      :       0.11       0.00         24          1          0          0          0          0          0          0          0          0          0
  > cmir           :          -          -          -          -          -          -          -          0          0          0          0          0          -
  > flowcover      :          -          -          -          -          -          -          -          0          0          0          0          0          -
  > knapsackcover  :          -          -          -          -          -          -          -          0          0          0          0          0          -
  cgmip            :       0.00       0.00          0          0          0          0          0          0          0          0          0          0          0
  clique           :       0.55       0.00          1          1          0          0          0          0          0          0          0          0          0
  closecuts        :       0.00       0.00          0          0          0          0          0          0          0          0          0          0          0
  convexproj       :       0.00       0.00          0          0          0          0          0          0          0          0          0          0          0
  disjunctive      :       0.00       0.00          0          0          0          0          0          0          0          0          0          0          0
  eccuts           :       0.00       0.00          0          0          0          0          0          0          0          0          0          0          0
  gauge            :       0.00       0.00          0          0          0          0          0          0          0          0          0          0          0
  gomory           :       0.33       0.00         24          1          0          0          0          0          0          0          0          0          0
  > gomorymi       :          -          -          -          -          -          -          -          0          0          0          0          0          -
  > strongcg       :          -          -          -          -          -          -          -          0          0          0          0          0          -
  impliedbounds    :       0.01       0.00         24          1          0          0          0          0          0          0          0          0          0
  interminor       :       0.00       0.00          0          0          0          0          0          0          0          0          0          0          0
  intobj           :       0.00       0.00          0          0          0          0          0          0          0          0          0          0          0
  mcf              :       0.00       0.00          1          1          0          0          0          0          0          0          0          0          0
  minor            :       0.00       0.00          0          0          0          0          0          0          0          0          0          0          0
  mixing           :       0.00       0.00         25          1          0          0          0          0          0          0          0          0          0
  oddcycle         :       0.00       0.00          0          0          0          0          0          0          0          0          0          0          0
  rapidlearning    :       0.00       0.00          0          0          0          0          0          0          0          0          0          0          0
  rlt              :       0.00       0.00          1          1          0          0          0          0          0          0          0          0          0
  zerohalf         :       0.04       0.00         24          1          0          0          6          1          5          6          1          5          0
Cutselectors       :   ExecTime  SetupTime      Calls  RootCalls   Selected     Forced   Filtered  RootSelec   RootForc   RootFilt 
  hybrid           :       0.00       0.00          6          0          6          0          0          0          0          0
Pricers            :   ExecTime  SetupTime      Calls       Vars
  problem variables:       0.00          -          0          0
Branching Rules    :   ExecTime  SetupTime   BranchLP  BranchExt   BranchPS    Cutoffs    DomReds       Cuts      Conss   Children
  allfullstrong    :       0.00       0.00          0          0          0          0          0          0          0          0
  cloud            :       0.00       0.00          0          0          0          0          0          0          0          0
  distribution     :       0.00       0.00          0          0          0          0          0          0          0          0
  fullstrong       :       0.00       0.00          0          0          0          0          0          0          0          0
  inference        :       0.00       0.00          0          0          0          0          0          0          0          0
  leastinf         :       0.00       0.00          0          0          0          0          0          0          0          0
  lookahead        :       0.00       0.00          0          0          0          0          0          0          0          0
  mostinf          :       0.00       0.00          0          0          0          0          0          0          0          0
  multaggr         :       0.00       0.00          0          0          0          0          0          0          0          0
  nodereopt        :       0.00       0.00          0          0          0          0          0          0          0          0
  pscost           :       0.00       0.00          0          0          0          0          0          0          0          0
  random           :       0.00       0.00          0          0          0          0          0          0          0          0
  relpscost        :      32.97       0.00        190          0          0          0        176          0        325        290
  vanillafullstrong:       0.00       0.00          0          0          0          0          0          0          0          0
Primal Heuristics  :   ExecTime  SetupTime      Calls      Found       Best
  LP solutions     :       0.00          -          -          1          1
  relax solutions  :       0.00          -          -          0          0
  pseudo solutions :       0.00          -          -          0          0
  strong branching :       0.01          -          -          1          1
  actconsdiving    :       0.00       0.00          0          0          0
  adaptivediving   :       0.00       0.00          0          0          0
  alns             :       0.33       0.00          5          0          0
  bound            :       0.00       0.00          0          0          0
  clique           :       0.09       0.00          1          1          1
  coefdiving       :       0.00       0.00          0          0          0
  completesol      :       0.00       0.00          0          0          0
  conflictdiving   :       1.37       0.00          1          0          0
  crossover        :       0.00       0.00          0          0          0
  dins             :       0.00       0.00          0          0          0
  distributiondivin:       0.04       0.00          0          0          0
  dps              :       0.00       0.00          0          0          0
  dualval          :       0.00       0.00          0          0          0
  farkasdiving     :       0.00       0.00          0          0          0
  feaspump         :       5.74       0.00          1          0          0
  fixandinfer      :       0.00       0.00          0          0          0
  fracdiving       :       0.00       0.00          0          0          0
  gins             :       0.01       0.00          0          0          0
  guideddiving     :       0.00       0.00          0          0          0
  indicator        :       0.00       0.00          0          0          0
  intdiving        :       0.00       0.00          0          0          0
  intshifting      :       0.00       0.00          0          0          0
  linesearchdiving :       0.00       0.00          0          0          0
  localbranching   :       0.00       0.00          0          0          0
  locks            :       0.05       0.00          1          0          0
  lpface           :       0.00       0.00          0          0          0
  mpec             :       0.00       0.00          0          0          0
  multistart       :       0.00       0.00          0          0          0
  mutation         :       0.00       0.00          0          0          0
  nlpdiving        :       0.00       0.00          0          0          0
  objpscostdiving  :       0.00       0.00          0          0          0
  octane           :       0.00       0.00          0          0          0
  ofins            :       0.00       0.00          0          0          0
  oneopt           :       0.01       0.00          3          0          0
  padm             :       0.00       0.00          0          0          0
  proximity        :       0.00       0.00          0          0          0
  pscostdiving     :       0.00       0.00          0          0          0
  randrounding     :       0.02       0.00          3          0          0
  rens             :       0.05       0.00          1          0          0
  reoptsols        :       0.00       0.00          0          0          0
  repair           :       0.00       0.00          0          0          0
  rins             :       0.00       0.00          0          0          0
  rootsoldiving    :       0.00       0.00          0          0          0
  rounding         :       0.13       0.00        129          0          0
  shiftandpropagate:       0.00       0.00          0          0          0
  shifting         :       0.14       0.00         21          0          0
  simplerounding   :       0.00       0.00          0          0          0
  subnlp           :       0.00       0.00          0          0          0
  trivial          :       0.02       0.00          2          0          0
  trivialnegation  :       0.00       0.00          0          0          0
  trustregion      :       0.00       0.00          0          0          0
  trysol           :       0.00       0.00          0          0          0
  twoopt           :       0.00       0.00          0          0          0
  undercover       :       0.00       0.00          0          0          0
  vbounds          :       1.41       0.00          1          0          0
  veclendiving     :       0.00       0.00          0          0          0
  zeroobj          :       0.00       0.00          0          0          0
  zirounding       :       0.01       0.00        145          0          0
  other solutions  :          -          -          -          0          -
LP                 :       Time      Calls Iterations  Iter/call   Iter/sec  Time-0-It Calls-0-It    ItLimit
  primal LP        :       0.04          1          0       0.00       0.00       0.04          1
  dual LP          :       9.12        667      53218     162.25    5832.69       0.47        339
  lex dual LP      :       0.00          0          0       0.00          -
  barrier LP       :       0.00          0          0       0.00          -       0.00          0
  resolve instable :       0.00          0          0       0.00          -
  diving/probing LP:       6.73         18      10310     572.78    1530.88
  strong branching :      26.36        370     135260     365.57    5130.93          -          -        121
    (at root node) :          -         19       8856     466.11          -
  conflict analysis:       1.37        194       1940      10.00    1417.40
B&B Tree           :
  number of runs   :          1
  nodes            :        289 (145 internal, 144 leaves)
  feasible leaves  :          1
  infeas. leaves   :         33
  objective leaves :        110
  nodes (total)    :        289 (145 internal, 144 leaves)
  nodes left       :          0
  max depth        :         35
  max depth (total):         35
  backtracks       :         31 (10.7%)
  early backtracks :          0 (0.0%)
  nodes exc. ref.  :          0 (0.0%)
  delayed cutoffs  :          0
  repropagations   :         22 (16 domain reductions, 0 cutoffs)
  avg switch length:       2.93
  switching time   :       0.28
Root Node          :
  First LP value   : +8.33333333333333e+00
  First LP Iters   :        543 (2786.27 Iter/sec)
  First LP Time    :       0.19
  Final Dual Bound : +8.67636363636363e+00
  Final Root Iters :        543
  Root LP Estimate : +1.13013660238972e+01
Solution           :
  Solutions found  :          3 (3 improvements)
  First Solution   : +2.60000000000000e+01   (in run 1, after 1 nodes, 5.44 seconds, depth 6, found by <clique>)
  Gap First Sol.   :     550.00 %
  Gap Last Sol.    :      41.45 %
  Primal Bound     : +1.30000000000000e+01   (in run 1, after 110 nodes, 51.04 seconds, depth 10, found by <relaxation>)
  Dual Bound       : +1.30000000000000e+01
  Gap              :       0.00 %
Integrals          :      Total       Avg%
  primal-dual      :    3021.68      50.64
  primal-ref       :          -          - (not evaluated)
  dual-ref         :          -          - (not evaluated)
written solution information to file <results/final_miplib_symretope_if_extended_generating_set_cpx_v802__settings_final_nosym_norestarts__1__square23.mps.gz.sol>
@04 1686651489
